c WARNING: for repeatability, setting FPU to use double precision
d VARIABLES            211614       
d CONSTRAINTS          781872       
c ============================[ Problem Statistics ]=============================
c |                                                                             |
c |  Number of variables:        211614                                         |
c |  Number of clauses:          781872                                         |
c |  Parse time:                   0.14 s                                       |
c |                                                                             |
c ============================[ Search Statistics ]==============================
c | Conflicts |          ORIGINAL         |          LEARNT          | Progress |
c |           |    Vars  Clauses Literals |    Limit  Clauses Lit/Cl |          |
c ===============================================================================
c |       100 |  174547   687034  1725505 |   251912       98      5 | 17.516 % |
c |       250 |  174547   687034  1725505 |   277103      248      8 | 17.516 % |
c |       475 |  174547   687034  1725505 |   304814      473      7 | 17.516 % |
c |       812 |  174547   687026  1725485 |   335295      810     12 | 17.516 % |
c |      1318 |  174547   687026  1725485 |   368825     1316     12 | 17.516 % |
c |      2077 |  174547   687026  1725485 |   405707     2075     16 | 17.516 % |
c |      3216 |  174547   687026  1725485 |   446278     3214     25 | 17.516 % |
c |      4924 |  174545   687022  1725475 |   490906     4920     26 | 17.517 % |
c |      7486 |  174545   687018  1725465 |   539996     7482     35 | 17.517 % |
c |     11330 |  174545   687018  1725465 |   593996    11326     53 | 17.517 % |
c |     17096 |  174545   687018  1725465 |   653396    17092     78 | 17.517 % |
c |     25745 |  174545   687018  1725465 |   718735    25741    142 | 17.517 % |
c |     38719 |  174545   687018  1725465 |   790609    38715    130 | 17.517 % |
c |     58180 |  174544   687014  1725455 |   869670    58175    120 | 17.518 % |
c |     87372 |  174544   687014  1725455 |   956637    87367    107 | 17.518 % |
c |    131161 |  174544   687014  1725455 |  1052300   131156    113 | 17.518 % |
c |    196845 |  174544   687014  1725455 |  1157530   196840    126 | 17.518 % |
c |    295371 |  174544   687014  1725455 |  1273284   295366    136 | 17.518 % |
c |    443160 |  174544   687014  1725455 |  1400612   443155    137 | 17.518 % |
c |    664843 |  174544   687014  1725455 |  1540673   664838    140 | 17.518 % |
c |    997368 |  174544   687014  1725455 |  1694741   997363    145 | 17.518 % |
c |   1496156 |  174544   687014  1725455 |  1864215  1496151    147 | 17.518 % |
c ===============================================================================
c restarts              : 4094
c conflicts             : 2207603        (1231 /sec)
c decisions             : 8007350        (0.00 % random) (4466 /sec)
c propagations          : 5178608027     (2888346 /sec)
c conflict literals     : 342304027      (30.40 % deleted)
d RESTARTS             4094
d FAILURES             2207603      
d NODES                8007350      
d BACKTRACKS           8007350      
d PROPAGATIONS         5178608027   
d NOGOODSIZE           155.06 
d MEMORY               1656.00 
d TIME                 1792.93 

s UNKNOWN
